
  12   12
  10   10   10   10   10   10   10   10   10   10   10   10

   0   0   0   0   0   0   0   0   0   0   0   0   0   3 2 4 5 
   9   0   0   0   0   0   0   0   0   1   0   0   0   3 11 10 3 
   6   1   0   0   0   0   0   0   0   0   0   0   1   4 9 8 7 6 
   7   0   1   1   0   1   5   0   0   0   0   0   0   1 7 
   5   8   0   0   0   0   0   0   1   0   0   0   5   1 6 
   3   7   0   0   0   8   0   5   9   0   0   0   9   1 12
   5   0   0   0   1   5   0   0   0   0   0   1   0   1 12
  10   3   6   8   0   0   0   0   0   5   0   0   0   1 12
   6   6   0   0   0   0   0   0   0   7   0   8   6   1 12
   9   0   8   6   7   6   0   0   0   7   0   6   4   1 12
   5   0   0   0   7   0   0   0   0   0   5   0   0   1 12
   0   0   0   0   0   0   0   0   0   0   0   0   0   0 
